22
2 0 2
2 1 3
3 1 3
4 2 2
5 1 2
5 2 3
5 4 1
6 0 2
6 1 4
6 2 3
6 4 4
7 0 1
7 2 1
7 4 4
7 6 2
8 0 4
8 2 1
8 3 1
8 4 4
8 5 4
8 7 3
9 4 4
9 5 2
9 6 2
9 8 4
10 2 4
10 3 2
10 4 2
10 9 2
11 0 2
11 2 1
11 5 1
11 6 1
11 7 2
12 0 4
12 2 1
12 3 3
12 5 3
12 6 2
12 8 1
12 9 1
12 11 1
13 2 2
13 5 2
13 10 3
13 11 3
14 1 1
14 3 2
14 4 4
14 5 1
14 6 2
14 7 2
14 8 4
14 12 3
14 13 4
15 0 3
15 2 3
15 6 1
15 7 3
15 9 4
15 12 4
15 13 1
15 14 4
16 1 1
16 2 2
16 3 3
16 6 4
16 8 3
16 10 2
16 12 1
16 14 2
16 15 3
17 1 2
17 6 2
17 9 1
17 11 1
18 1 1
18 2 3
18 3 3
18 4 1
18 5 2
18 6 3
18 9 2
18 11 1
18 12 1
18 14 4
18 17 3
19 0 1
19 2 1
19 3 3
19 5 3
19 7 1
19 8 2
19 9 2
19 10 3
19 12 1
19 13 2
19 16 1
19 18 4
20 0 4
20 1 1
20 2 4
20 3 1
20 5 4
20 7 4
20 9 4
20 10 1
20 12 1
20 13 1
20 14 4
20 15 2
20 18 2
21 0 2
21 2 3
21 4 4
21 5 4
21 6 1
21 8 4
21 11 3
21 13 4
21 16 1
21 17 1
